709
58 62
24 100
12 56
6 61
136 82
140 7
83 34
91 65
13 44
72 43
132 77
136 78
73 98
56 57
57 23
57 39
109 57
23 59
78 5
30 31
129 95
3 4
43 37
67 14
37 65
67 54
1 35
72 32
99 27
112 69
28 38
26 76
70 78
42 82
114 30
75 89
69 63
43 44
94 54
12 28
51 2
45 39
6 92
6 32
77 47
82 65
39 12
21 59
75 89
55 83
2 8
131 71
137 85
121 80
70 18
2 51
102 87
8 99
107 35
6 45
91 87
108 26
129 95
17 82
58 52
63 39
131 8
27 100
60 78
43 24
98 40
99 74
105 30
119 73
97 48
134 47
67 31
15 92
21 56
84 65
61 22
35 64
76 52
31 91
25 90
38 51
138 6
60 67
87 34
111 12
50 17
3 86
70 58
55 74
77 95
123 89
32 94
112 5
104 73
21 21
